<?xml version = "1.0" standalone="yes"?>
<!-- This file has been generated by DOcplex version 2.23.222  -->
<CPLEXSolution version="1.0">
 <header
   problemName="CVRP"
   objectiveValue="12837.7"
  />
 <variables>
  <variable name="x_0_1" index="0" value="1.00000"/>
  <variable name="x_0_5" index="4" value="1.00000"/>
  <variable name="x_0_7" index="6" value="1.00000"/>
  <variable name="x_0_9" index="8" value="1.00000"/>
  <variable name="x_0_10" index="9" value="1.00000"/>
  <variable name="x_0_11" index="10" value="1.00000"/>
  <variable name="x_0_12" index="11" value="1.00000"/>
  <variable name="x_0_15" index="14" value="1.00000"/>
  <variable name="x_0_17" index="16" value="1.00000"/>
  <variable name="x_0_18" index="17" value="1.00000"/>
  <variable name="x_0_21" index="20" value="1.00000"/>
  <variable name="x_0_23" index="22" value="1.00000"/>
  <variable name="x_0_26" index="25" value="1.00000"/>
  <variable name="x_0_27" index="26" value="1.00000"/>
  <variable name="x_1_20" index="48" value="1.00000"/>
  <variable name="x_2_24" index="81" value="1.00000"/>
  <variable name="x_3_0" index="87" value="1.00000"/>
  <variable name="x_4_6" index="121" value="1.00000"/>
  <variable name="x_5_8" index="152" value="1.00000"/>
  <variable name="x_6_0" index="174" value="1.00000"/>
  <variable name="x_7_0" index="203" value="1.00000"/>
  <variable name="x_8_0" index="232" value="1.00000"/>
  <variable name="x_9_0" index="261" value="1.00000"/>
  <variable name="x_10_13" index="302" value="1.00000"/>
  <variable name="x_11_14" index="332" value="1.00000"/>
  <variable name="x_12_19" index="366" value="1.00000"/>
  <variable name="x_13_0" index="377" value="1.00000"/>
  <variable name="x_14_0" index="406" value="1.00000"/>
  <variable name="x_15_22" index="456" value="1.00000"/>
  <variable name="x_16_0" index="464" value="1.00000"/>
  <variable name="x_17_0" index="493" value="1.00000"/>
  <variable name="x_18_3" index="525" value="1.00000"/>
  <variable name="x_19_0" index="551" value="1.00000"/>
  <variable name="x_20_16" index="596" value="1.00000"/>
  <variable name="x_21_0" index="609" value="1.00000"/>
  <variable name="x_22_0" index="638" value="1.00000"/>
  <variable name="x_23_4" index="671" value="1.00000"/>
  <variable name="x_24_29" index="724" value="1.00000"/>
  <variable name="x_25_0" index="725" value="1.00000"/>
  <variable name="x_26_28" index="781" value="1.00000"/>
  <variable name="x_27_25" index="808" value="1.00000"/>
  <variable name="x_28_2" index="814" value="1.00000"/>
  <variable name="x_29_0" index="841" value="1.00000"/>
  <variable name="u_1" index="870" value="6.00000"/>
  <variable name="u_2" index="871" value="13.00000"/>
  <variable name="u_3" index="872" value="25.00000"/>
  <variable name="u_4" index="873" value="4.00000"/>
  <variable name="u_5" index="874" value="2.00000"/>
  <variable name="u_6" index="875" value="25.00000"/>
  <variable name="u_7" index="876" value="24.00000"/>
  <variable name="u_8" index="877" value="25.00000"/>
  <variable name="u_9" index="878" value="25.00000"/>
  <variable name="u_10" index="879" value="7.00000"/>
  <variable name="u_11" index="880" value="15.00000"/>
  <variable name="u_12" index="881" value="22.00000"/>
  <variable name="u_13" index="882" value="23.00000"/>
  <variable name="u_14" index="883" value="25.00000"/>
  <variable name="u_15" index="884" value="4.00000"/>
  <variable name="u_16" index="885" value="25.00000"/>
  <variable name="u_17" index="886" value="25.00000"/>
  <variable name="u_18" index="887" value="21.00000"/>
  <variable name="u_19" index="888" value="25.00000"/>
  <variable name="u_20" index="889" value="15.00000"/>
  <variable name="u_21" index="890" value="22.00000"/>
  <variable name="u_22" index="891" value="23.00000"/>
  <variable name="u_23" index="892" value="1.00000"/>
  <variable name="u_24" index="893" value="18.00000"/>
  <variable name="u_25" index="894" value="22.00000"/>
  <variable name="u_26" index="895" value="2.00000"/>
  <variable name="u_27" index="896" value="11.00000"/>
  <variable name="u_28" index="897" value="6.00000"/>
  <variable name="u_29" index="898" value="25.00000"/>
 </variables>
</CPLEXSolution>
